50
1000
623
596
581
568
568
563
544
517
481
478
467
444
428
408
398
387
382
378
364
363
357
356
353
343
341
330
304
300
260
252
252
252
239
221
217
195
178
163
156
153
147
144
143
143
138
137
127
78
68
59
